18 5
6 8 14 13 17
000010000000000001
000000010000000000
000100000011000001
001001001011110000
100000100000000000
000100010000000000
000010001000000000
010001001000000100
000100110000100000
000000000001000000
001100000000001000
001100000100000001
000100001000000000
000100000000000001
000000000010000000
000000010000000000
000000000000000001
101000000001010010
